c description: Graph 3-Colorability of graph: 
c generator: CNFgen (0.9.0)
c copyright: (C) 2012-2020 Massimo Lauria <massimo.lauria@uniroma1.it>
c url: https://massimolauria.net/cnfgen
c
p cnf 150 800
1 2 3 0
-1 -2 0
-1 -3 0
-2 -3 0
4 5 6 0
-4 -5 0
-4 -6 0
-5 -6 0
7 8 9 0
-7 -8 0
-7 -9 0
-8 -9 0
10 11 12 0
-10 -11 0
-10 -12 0
-11 -12 0
13 14 15 0
-13 -14 0
-13 -15 0
-14 -15 0
16 17 18 0
-16 -17 0
-16 -18 0
-17 -18 0
19 20 21 0
-19 -20 0
-19 -21 0
-20 -21 0
22 23 24 0
-22 -23 0
-22 -24 0
-23 -24 0
25 26 27 0
-25 -26 0
-25 -27 0
-26 -27 0
28 29 30 0
-28 -29 0
-28 -30 0
-29 -30 0
31 32 33 0
-31 -32 0
-31 -33 0
-32 -33 0
34 35 36 0
-34 -35 0
-34 -36 0
-35 -36 0
37 38 39 0
-37 -38 0
-37 -39 0
-38 -39 0
40 41 42 0
-40 -41 0
-40 -42 0
-41 -42 0
43 44 45 0
-43 -44 0
-43 -45 0
-44 -45 0
46 47 48 0
-46 -47 0
-46 -48 0
-47 -48 0
49 50 51 0
-49 -50 0
-49 -51 0
-50 -51 0
52 53 54 0
-52 -53 0
-52 -54 0
-53 -54 0
55 56 57 0
-55 -56 0
-55 -57 0
-56 -57 0
58 59 60 0
-58 -59 0
-58 -60 0
-59 -60 0
61 62 63 0
-61 -62 0
-61 -63 0
-62 -63 0
64 65 66 0
-64 -65 0
-64 -66 0
-65 -66 0
67 68 69 0
-67 -68 0
-67 -69 0
-68 -69 0
70 71 72 0
-70 -71 0
-70 -72 0
-71 -72 0
73 74 75 0
-73 -74 0
-73 -75 0
-74 -75 0
76 77 78 0
-76 -77 0
-76 -78 0
-77 -78 0
79 80 81 0
-79 -80 0
-79 -81 0
-80 -81 0
82 83 84 0
-82 -83 0
-82 -84 0
-83 -84 0
85 86 87 0
-85 -86 0
-85 -87 0
-86 -87 0
88 89 90 0
-88 -89 0
-88 -90 0
-89 -90 0
91 92 93 0
-91 -92 0
-91 -93 0
-92 -93 0
94 95 96 0
-94 -95 0
-94 -96 0
-95 -96 0
97 98 99 0
-97 -98 0
-97 -99 0
-98 -99 0
100 101 102 0
-100 -101 0
-100 -102 0
-101 -102 0
103 104 105 0
-103 -104 0
-103 -105 0
-104 -105 0
106 107 108 0
-106 -107 0
-106 -108 0
-107 -108 0
109 110 111 0
-109 -110 0
-109 -111 0
-110 -111 0
112 113 114 0
-112 -113 0
-112 -114 0
-113 -114 0
115 116 117 0
-115 -116 0
-115 -117 0
-116 -117 0
118 119 120 0
-118 -119 0
-118 -120 0
-119 -120 0
121 122 123 0
-121 -122 0
-121 -123 0
-122 -123 0
124 125 126 0
-124 -125 0
-124 -126 0
-125 -126 0
127 128 129 0
-127 -128 0
-127 -129 0
-128 -129 0
130 131 132 0
-130 -131 0
-130 -132 0
-131 -132 0
133 134 135 0
-133 -134 0
-133 -135 0
-134 -135 0
136 137 138 0
-136 -137 0
-136 -138 0
-137 -138 0
139 140 141 0
-139 -140 0
-139 -141 0
-140 -141 0
142 143 144 0
-142 -143 0
-142 -144 0
-143 -144 0
145 146 147 0
-145 -146 0
-145 -147 0
-146 -147 0
148 149 150 0
-148 -149 0
-148 -150 0
-149 -150 0
-1 -43 0
-2 -44 0
-3 -45 0
-1 -52 0
-2 -53 0
-3 -54 0
-1 -58 0
-2 -59 0
-3 -60 0
-1 -67 0
-2 -68 0
-3 -69 0
-1 -79 0
-2 -80 0
-3 -81 0
-1 -109 0
-2 -110 0
-3 -111 0
-1 -112 0
-2 -113 0
-3 -114 0
-1 -118 0
-2 -119 0
-3 -120 0
-1 -127 0
-2 -128 0
-3 -129 0
-1 -148 0
-2 -149 0
-3 -150 0
-4 -61 0
-5 -62 0
-6 -63 0
-4 -70 0
-5 -71 0
-6 -72 0
-4 -76 0
-5 -77 0
-6 -78 0
-4 -97 0
-5 -98 0
-6 -99 0
-4 -100 0
-5 -101 0
-6 -102 0
-4 -103 0
-5 -104 0
-6 -105 0
-4 -139 0
-5 -140 0
-6 -141 0
-7 -16 0
-8 -17 0
-9 -18 0
-7 -46 0
-8 -47 0
-9 -48 0
-7 -49 0
-8 -50 0
-9 -51 0
-7 -73 0
-8 -74 0
-9 -75 0
-7 -79 0
-8 -80 0
-9 -81 0
-7 -88 0
-8 -89 0
-9 -90 0
-7 -91 0
-8 -92 0
-9 -93 0
-7 -94 0
-8 -95 0
-9 -96 0
-7 -133 0
-8 -134 0
-9 -135 0
-7 -145 0
-8 -146 0
-9 -147 0
-10 -70 0
-11 -71 0
-12 -72 0
-10 -121 0
-11 -122 0
-12 -123 0
-10 -130 0
-11 -131 0
-12 -132 0
-10 -145 0
-11 -146 0
-12 -147 0
-13 -31 0
-14 -32 0
-15 -33 0
-13 -37 0
-14 -38 0
-15 -39 0
-13 -55 0
-14 -56 0
-15 -57 0
-13 -79 0
-14 -80 0
-15 -81 0
-13 -88 0
-14 -89 0
-15 -90 0
-13 -109 0
-14 -110 0
-15 -111 0
-13 -115 0
-14 -116 0
-15 -117 0
-13 -121 0
-14 -122 0
-15 -123 0
-13 -130 0
-14 -131 0
-15 -132 0
-13 -139 0
-14 -140 0
-15 -141 0
-16 -22 0
-17 -23 0
-18 -24 0
-16 -43 0
-17 -44 0
-18 -45 0
-16 -49 0
-17 -50 0
-18 -51 0
-16 -61 0
-17 -62 0
-18 -63 0
-16 -70 0
-17 -71 0
-18 -72 0
-16 -73 0
-17 -74 0
-18 -75 0
-16 -79 0
-17 -80 0
-18 -81 0
-16 -88 0
-17 -89 0
-18 -90 0
-16 -97 0
-17 -98 0
-18 -99 0
-16 -127 0
-17 -128 0
-18 -129 0
-16 -133 0
-17 -134 0
-18 -135 0
-19 -106 0
-20 -107 0
-21 -108 0
-19 -121 0
-20 -122 0
-21 -123 0
-19 -127 0
-20 -128 0
-21 -129 0
-19 -136 0
-20 -137 0
-21 -138 0
-19 -145 0
-20 -146 0
-21 -147 0
-22 -28 0
-23 -29 0
-24 -30 0
-22 -37 0
-23 -38 0
-24 -39 0
-22 -43 0
-23 -44 0
-24 -45 0
-22 -55 0
-23 -56 0
-24 -57 0
-22 -79 0
-23 -80 0
-24 -81 0
-22 -88 0
-23 -89 0
-24 -90 0
-22 -94 0
-23 -95 0
-24 -96 0
-22 -100 0
-23 -101 0
-24 -102 0
-22 -103 0
-23 -104 0
-24 -105 0
-22 -106 0
-23 -107 0
-24 -108 0
-22 -127 0
-23 -128 0
-24 -129 0
-22 -136 0
-23 -137 0
-24 -138 0
-25 -31 0
-26 -32 0
-27 -33 0
-25 -58 0
-26 -59 0
-27 -60 0
-25 -88 0
-26 -89 0
-27 -90 0
-25 -100 0
-26 -101 0
-27 -102 0
-25 -115 0
-26 -116 0
-27 -117 0
-25 -121 0
-26 -122 0
-27 -123 0
-25 -127 0
-26 -128 0
-27 -129 0
-25 -139 0
-26 -140 0
-27 -141 0
-28 -34 0
-29 -35 0
-30 -36 0
-28 -43 0
-29 -44 0
-30 -45 0
-28 -46 0
-29 -47 0
-30 -48 0
-28 -49 0
-29 -50 0
-30 -51 0
-28 -64 0
-29 -65 0
-30 -66 0
-28 -70 0
-29 -71 0
-30 -72 0
-28 -73 0
-29 -74 0
-30 -75 0
-28 -115 0
-29 -116 0
-30 -117 0
-28 -136 0
-29 -137 0
-30 -138 0
-31 -37 0
-32 -38 0
-33 -39 0
-31 -40 0
-32 -41 0
-33 -42 0
-31 -49 0
-32 -50 0
-33 -51 0
-31 -52 0
-32 -53 0
-33 -54 0
-31 -79 0
-32 -80 0
-33 -81 0
-31 -91 0
-32 -92 0
-33 -93 0
-31 -127 0
-32 -128 0
-33 -129 0
-34 -58 0
-35 -59 0
-36 -60 0
-34 -79 0
-35 -80 0
-36 -81 0
-34 -94 0
-35 -95 0
-36 -96 0
-34 -115 0
-35 -116 0
-36 -117 0
-37 -40 0
-38 -41 0
-39 -42 0
-37 -52 0
-38 -53 0
-39 -54 0
-37 -103 0
-38 -104 0
-39 -105 0
-37 -109 0
-38 -110 0
-39 -111 0
-40 -46 0
-41 -47 0
-42 -48 0
-40 -61 0
-41 -62 0
-42 -63 0
-40 -100 0
-41 -101 0
-42 -102 0
-40 -106 0
-41 -107 0
-42 -108 0
-43 -55 0
-44 -56 0
-45 -57 0
-43 -79 0
-44 -80 0
-45 -81 0
-43 -106 0
-44 -107 0
-45 -108 0
-46 -52 0
-47 -53 0
-48 -54 0
-46 -100 0
-47 -101 0
-48 -102 0
-46 -106 0
-47 -107 0
-48 -108 0
-46 -109 0
-47 -110 0
-48 -111 0
-46 -112 0
-47 -113 0
-48 -114 0
-46 -118 0
-47 -119 0
-48 -120 0
-46 -121 0
-47 -122 0
-48 -123 0
-49 -67 0
-50 -68 0
-51 -69 0
-49 -70 0
-50 -71 0
-51 -72 0
-49 -115 0
-50 -116 0
-51 -117 0
-49 -118 0
-50 -119 0
-51 -120 0
-49 -148 0
-50 -149 0
-51 -150 0
-52 -82 0
-53 -83 0
-54 -84 0
-52 -94 0
-53 -95 0
-54 -96 0
-52 -100 0
-53 -101 0
-54 -102 0
-52 -103 0
-53 -104 0
-54 -105 0
-52 -148 0
-53 -149 0
-54 -150 0
-55 -73 0
-56 -74 0
-57 -75 0
-55 -91 0
-56 -92 0
-57 -93 0
-55 -97 0
-56 -98 0
-57 -99 0
-55 -115 0
-56 -116 0
-57 -117 0
-58 -109 0
-59 -110 0
-60 -111 0
-58 -115 0
-59 -116 0
-60 -117 0
-58 -139 0
-59 -140 0
-60 -141 0
-58 -142 0
-59 -143 0
-60 -144 0
-61 -70 0
-62 -71 0
-63 -72 0
-61 -73 0
-62 -74 0
-63 -75 0
-61 -88 0
-62 -89 0
-63 -90 0
-61 -133 0
-62 -134 0
-63 -135 0
-61 -145 0
-62 -146 0
-63 -147 0
-61 -148 0
-62 -149 0
-63 -150 0
-64 -94 0
-65 -95 0
-66 -96 0
-64 -106 0
-65 -107 0
-66 -108 0
-67 -85 0
-68 -86 0
-69 -87 0
-67 -115 0
-68 -116 0
-69 -117 0
-67 -133 0
-68 -134 0
-69 -135 0
-67 -148 0
-68 -149 0
-69 -150 0
-70 -76 0
-71 -77 0
-72 -78 0
-73 -94 0
-74 -95 0
-75 -96 0
-73 -127 0
-74 -128 0
-75 -129 0
-73 -130 0
-74 -131 0
-75 -132 0
-73 -136 0
-74 -137 0
-75 -138 0
-76 -94 0
-77 -95 0
-78 -96 0
-76 -124 0
-77 -125 0
-78 -126 0
-76 -127 0
-77 -128 0
-78 -129 0
-76 -139 0
-77 -140 0
-78 -141 0
-76 -142 0
-77 -143 0
-78 -144 0
-79 -91 0
-80 -92 0
-81 -93 0
-79 -115 0
-80 -116 0
-81 -117 0
-79 -118 0
-80 -119 0
-81 -120 0
-79 -136 0
-80 -137 0
-81 -138 0
-79 -145 0
-80 -146 0
-81 -147 0
-82 -97 0
-83 -98 0
-84 -99 0
-85 -115 0
-86 -116 0
-87 -117 0
-85 -121 0
-86 -122 0
-87 -123 0
-88 -91 0
-89 -92 0
-90 -93 0
-88 -94 0
-89 -95 0
-90 -96 0
-88 -121 0
-89 -122 0
-90 -123 0
-88 -139 0
-89 -140 0
-90 -141 0
-88 -145 0
-89 -146 0
-90 -147 0
-91 -94 0
-92 -95 0
-93 -96 0
-91 -130 0
-92 -131 0
-93 -132 0
-91 -133 0
-92 -134 0
-93 -135 0
-91 -136 0
-92 -137 0
-93 -138 0
-94 -112 0
-95 -113 0
-96 -114 0
-94 -124 0
-95 -125 0
-96 -126 0
-97 -112 0
-98 -113 0
-99 -114 0
-97 -136 0
-98 -137 0
-99 -138 0
-97 -145 0
-98 -146 0
-99 -147 0
-103 -121 0
-104 -122 0
-105 -123 0
-103 -142 0
-104 -143 0
-105 -144 0
-103 -148 0
-104 -149 0
-105 -150 0
-106 -115 0
-107 -116 0
-108 -117 0
-106 -118 0
-107 -119 0
-108 -120 0
-106 -124 0
-107 -125 0
-108 -126 0
-109 -124 0
-110 -125 0
-111 -126 0
-112 -115 0
-113 -116 0
-114 -117 0
-112 -118 0
-113 -119 0
-114 -120 0
-112 -124 0
-113 -125 0
-114 -126 0
-112 -148 0
-113 -149 0
-114 -150 0
-115 -139 0
-116 -140 0
-117 -141 0
-118 -121 0
-119 -122 0
-120 -123 0
-118 -130 0
-119 -131 0
-120 -132 0
-118 -136 0
-119 -137 0
-120 -138 0
-121 -127 0
-122 -128 0
-123 -129 0
-121 -133 0
-122 -134 0
-123 -135 0
-124 -130 0
-125 -131 0
-126 -132 0
-124 -145 0
-125 -146 0
-126 -147 0
-127 -148 0
-128 -149 0
-129 -150 0
-133 -136 0
-134 -137 0
-135 -138 0
-133 -145 0
-134 -146 0
-135 -147 0
-139 -145 0
-140 -146 0
-141 -147 0